benchmark_str_length/p2_10_5-4.dzn
Alphabet = {A,C,G,T};
ns = 10;
nc = 5;
sl = 10;
neighbours = [| I(C),I(A),I(C),I(C),Null | I(G),I(T),I(T),I(C),I(T) | I(T),I(A),I(C),Null,Null | I(T),I(T),Null,Null,Null | I(A),I(T),I(A),Null,Null | I(A),Null,Null,Null,Null | I(G),Null,Null,Null,Null | I(A),I(C),I(A),I(T),Null | I(G),I(A),I(T),I(A),Null | I(C),I(C),Null,Null,Null |];
